c Reduced graph for homer_1 generated by Cyril Grelier
p edge 277 1239
e 1 2
e 1 3
e 1 4
e 1 5
e 1 6
e 1 7
e 1 8
e 1 9
e 1 10
e 1 11
e 1 13
e 1 14
e 1 15
e 1 16
e 1 17
e 1 18
e 1 21
e 1 22
e 1 23
e 1 24
e 1 25
e 1 27
e 1 28
e 1 30
e 1 33
e 1 34
e 1 36
e 1 38
e 1 39
e 1 41
e 1 47
e 1 48
e 1 49
e 1 50
e 1 51
e 1 53
e 1 54
e 1 59
e 1 60
e 1 65
e 1 66
e 1 67
e 1 68
e 1 71
e 1 72
e 1 73
e 1 80
e 1 81
e 1 85
e 1 88
e 1 90
e 1 92
e 1 106
e 1 108
e 1 111
e 1 112
e 1 114
e 1 115
e 1 128
e 1 149
e 1 155
e 1 175
e 1 178
e 1 215
e 1 219
e 1 238
e 1 242
e 2 3
e 2 4
e 2 5
e 2 6
e 2 7
e 2 8
e 2 9
e 2 11
e 2 13
e 2 14
e 2 15
e 2 16
e 2 17
e 2 18
e 2 19
e 2 20
e 2 21
e 2 25
e 2 27
e 2 33
e 2 37
e 2 39
e 2 42
e 2 45
e 2 48
e 2 54
e 2 69
e 2 70
e 2 71
e 2 80
e 2 86
e 2 110
e 2 113
e 2 114
e 2 116
e 2 118
e 2 119
e 2 122
e 2 123
e 2 124
e 2 125
e 2 126
e 2 127
e 2 129
e 2 133
e 2 138
e 2 142
e 2 144
e 2 159
e 2 214
e 2 216
e 2 221
e 2 222
e 2 248
e 2 255
e 2 258
e 2 259
e 3 4
e 3 5
e 3 6
e 3 7
e 3 8
e 3 9
e 3 11
e 3 12
e 3 14
e 3 15
e 3 16
e 3 17
e 3 18
e 3 19
e 3 21
e 3 22
e 3 23
e 3 25
e 3 26
e 3 28
e 3 29
e 3 31
e 3 33
e 3 34
e 3 37
e 3 39
e 3 41
e 3 47
e 3 50
e 3 53
e 3 54
e 3 59
e 3 60
e 3 65
e 3 66
e 3 67
e 3 68
e 3 74
e 3 80
e 3 81
e 3 97
e 3 110
e 3 133
e 3 136
e 4 6
e 4 7
e 4 8
e 4 9
e 4 10
e 4 11
e 4 12
e 4 14
e 4 15
e 4 16
e 4 17
e 4 21
e 4 22
e 4 23
e 4 24
e 4 25
e 4 26
e 4 30
e 4 31
e 4 33
e 4 36
e 4 37
e 4 38
e 4 39
e 4 40
e 4 42
e 4 47
e 4 53
e 4 54
e 4 59
e 4 60
e 4 65
e 4 66
e 4 67
e 4 68
e 4 80
e 4 97
e 4 162
e 4 177
e 4 181
e 4 184
e 4 199
e 5 9
e 5 13
e 5 14
e 5 16
e 5 18
e 5 19
e 5 20
e 5 21
e 5 22
e 5 23
e 5 24
e 5 30
e 5 41
e 5 48
e 5 49
e 5 51
e 5 55
e 5 57
e 5 69
e 5 71
e 5 83
e 5 84
e 5 97
e 5 99
e 5 101
e 5 105
e 5 120
e 5 131
e 5 145
e 5 146
e 5 156
e 5 161
e 5 163
e 5 170
e 5 182
e 5 207
e 5 209
e 5 227
e 5 232
e 5 250
e 5 261
e 6 7
e 6 9
e 6 11
e 6 12
e 6 13
e 6 14
e 6 15
e 6 16
e 6 17
e 6 19
e 6 20
e 6 22
e 6 23
e 6 25
e 6 26
e 6 28
e 6 29
e 6 31
e 6 33
e 6 37
e 6 40
e 6 45
e 6 50
e 6 54
e 6 74
e 6 80
e 6 97
e 6 130
e 6 132
e 6 135
e 6 137
e 6 140
e 6 158
e 6 181
e 6 198
e 6 229
e 6 234
e 6 239
e 7 8
e 7 9
e 7 10
e 7 11
e 7 12
e 7 14
e 7 15
e 7 17
e 7 18
e 7 20
e 7 22
e 7 24
e 7 25
e 7 26
e 7 29
e 7 30
e 7 31
e 7 33
e 7 42
e 7 54
e 7 130
e 7 158
e 7 160
e 7 181
e 7 183
e 7 186
e 7 194
e 7 204
e 7 210
e 7 223
e 7 235
e 7 244
e 7 245
e 7 253
e 7 260
e 7 265
e 8 9
e 8 10
e 8 11
e 8 12
e 8 15
e 8 17
e 8 19
e 8 23
e 8 27
e 8 29
e 8 31
e 8 32
e 8 34
e 8 35
e 8 42
e 8 45
e 8 46
e 8 56
e 8 58
e 8 63
e 8 72
e 8 74
e 8 77
e 8 92
e 8 94
e 8 100
e 8 102
e 8 136
e 8 148
e 8 162
e 8 177
e 8 184
e 8 199
e 9 10
e 9 11
e 9 12
e 9 16
e 9 18
e 9 19
e 9 21
e 9 22
e 9 25
e 9 27
e 9 28
e 9 30
e 9 32
e 9 33
e 9 35
e 9 36
e 9 41
e 9 46
e 9 47
e 9 55
e 9 57
e 9 63
e 9 85
e 9 93
e 9 105
e 9 149
e 9 162
e 9 175
e 9 177
e 9 179
e 10 11
e 10 12
e 10 13
e 10 14
e 10 15
e 10 20
e 10 26
e 10 27
e 10 28
e 10 30
e 10 32
e 10 35
e 10 36
e 10 38
e 10 40
e 10 46
e 10 52
e 10 63
e 10 87
e 10 89
e 10 90
e 10 91
e 10 92
e 10 95
e 10 96
e 10 98
e 10 106
e 10 108
e 10 111
e 10 112
e 10 141
e 10 142
e 11 12
e 11 15
e 11 16
e 11 17
e 11 18
e 11 19
e 11 21
e 11 23
e 11 25
e 11 26
e 11 27
e 11 29
e 11 31
e 11 32
e 11 34
e 11 35
e 11 37
e 11 38
e 11 46
e 11 63
e 11 77
e 11 81
e 11 97
e 11 104
e 11 141
e 11 148
e 12 15
e 12 16
e 12 17
e 12 19
e 12 21
e 12 23
e 12 25
e 12 26
e 12 27
e 12 29
e 12 31
e 12 32
e 12 34
e 12 35
e 12 42
e 12 45
e 12 46
e 12 56
e 12 58
e 12 63
e 12 72
e 12 85
e 12 94
e 12 97
e 12 102
e 12 109
e 13 21
e 13 32
e 13 36
e 13 38
e 13 40
e 13 48
e 13 51
e 13 54
e 13 61
e 13 62
e 13 64
e 13 75
e 13 76
e 13 78
e 13 79
e 13 82
e 13 87
e 13 88
e 13 89
e 13 91
e 13 95
e 13 96
e 13 98
e 13 115
e 13 128
e 13 142
e 13 243
e 13 256
e 14 15
e 14 17
e 14 18
e 14 19
e 14 20
e 14 21
e 14 24
e 14 30
e 14 33
e 14 36
e 14 42
e 14 48
e 14 51
e 14 55
e 14 69
e 14 84
e 14 88
e 14 130
e 14 143
e 14 150
e 14 168
e 14 171
e 14 173
e 14 193
e 15 16
e 15 17
e 15 25
e 15 31
e 15 33
e 15 37
e 15 52
e 15 70
e 15 74
e 15 99
e 15 130
e 15 132
e 15 135
e 15 137
e 15 140
e 15 158
e 15 217
e 15 218
e 15 230
e 15 236
e 16 17
e 16 18
e 16 25
e 16 26
e 16 37
e 16 41
e 16 45
e 16 52
e 16 53
e 16 69
e 16 70
e 16 71
e 16 80
e 16 90
e 16 110
e 16 114
e 16 116
e 16 129
e 16 133
e 16 142
e 16 144
e 17 21
e 17 25
e 17 26
e 17 29
e 17 31
e 17 33
e 17 34
e 17 37
e 17 40
e 17 45
e 17 50
e 17 58
e 17 70
e 17 102
e 17 110
e 17 133
e 17 186
e 17 194
e 18 19
e 18 20
e 18 21
e 18 22
e 18 24
e 18 27
e 18 28
e 18 30
e 18 34
e 18 36
e 18 41
e 18 48
e 18 49
e 18 55
e 18 57
e 18 81
e 18 86
e 18 101
e 18 105
e 18 224
e 18 264
e 19 20
e 19 23
e 19 25
e 19 29
e 19 33
e 19 35
e 19 48
e 19 49
e 19 51
e 19 56
e 19 69
e 19 70
e 19 71
e 19 72
e 19 84
e 19 101
e 19 131
e 19 141
e 19 170
e 20 24
e 20 30
e 20 33
e 20 48
e 20 51
e 20 55
e 20 57
e 20 69
e 20 71
e 20 84
e 20 86
e 20 99
e 20 131
e 20 161
e 20 182
e 21 24
e 21 25
e 21 33
e 21 34
e 21 41
e 21 50
e 21 54
e 21 81
e 21 88
e 21 115
e 21 128
e 22 23
e 22 27
e 22 28
e 22 39
e 22 41
e 22 47
e 22 53
e 22 59
e 22 60
e 22 65
e 22 66
e 22 67
e 22 68
e 22 147
e 23 26
e 23 29
e 23 35
e 23 41
e 23 50
e 23 56
e 23 72
e 23 74
e 23 97
e 23 136
e 23 155
e 24 30
e 24 46
e 24 51
e 24 57
e 24 86
e 24 105
e 24 109
e 24 139
e 24 195
e 24 196
e 24 240
e 24 257
e 24 262
e 25 26
e 25 29
e 25 31
e 25 33
e 25 50
e 25 73
e 25 114
e 26 29
e 26 42
e 26 43
e 26 44
e 26 52
e 26 73
e 26 93
e 26 97
e 26 103
e 26 107
e 27 28
e 27 32
e 27 35
e 27 36
e 27 41
e 27 46
e 27 63
e 27 85
e 27 141
e 27 149
e 27 151
e 28 34
e 28 41
e 28 56
e 28 85
e 28 90
e 28 92
e 28 106
e 28 108
e 28 111
e 28 112
e 28 136
e 28 149
e 29 31
e 29 34
e 29 35
e 29 45
e 29 56
e 29 58
e 29 72
e 29 102
e 29 164
e 30 38
e 30 48
e 30 57
e 30 75
e 30 76
e 30 86
e 30 105
e 30 115
e 30 179
e 31 34
e 31 35
e 31 45
e 31 46
e 31 58
e 31 63
e 31 102
e 31 109
e 32 35
e 32 36
e 32 46
e 32 63
e 32 77
e 32 87
e 32 89
e 32 91
e 32 95
e 32 96
e 32 98
e 32 148
e 33 41
e 33 50
e 33 69
e 33 157
e 34 45
e 34 58
e 34 81
e 34 102
e 34 185
e 34 213
e 34 247
e 35 36
e 35 46
e 35 56
e 35 58
e 35 63
e 35 72
e 35 109
e 36 77
e 36 87
e 36 89
e 36 91
e 36 95
e 36 96
e 36 98
e 37 70
e 37 110
e 37 113
e 37 125
e 37 133
e 37 138
e 37 153
e 37 159
e 37 220
e 38 40
e 38 48
e 38 61
e 38 62
e 38 64
e 38 75
e 38 76
e 38 78
e 38 79
e 38 82
e 39 41
e 39 47
e 39 53
e 39 59
e 39 60
e 39 65
e 39 66
e 39 67
e 39 68
e 39 86
e 39 191
e 40 61
e 40 62
e 40 64
e 40 75
e 40 76
e 40 78
e 40 79
e 40 82
e 40 150
e 40 185
e 41 50
e 41 120
e 42 43
e 42 44
e 42 52
e 42 57
e 42 73
e 42 93
e 42 103
e 42 107
e 43 44
e 43 52
e 43 73
e 43 77
e 43 93
e 43 94
e 43 100
e 43 103
e 43 104
e 43 107
e 43 117
e 43 121
e 44 52
e 44 73
e 44 77
e 44 93
e 44 94
e 44 100
e 44 103
e 44 104
e 44 107
e 44 117
e 44 121
e 45 57
e 45 58
e 45 80
e 45 102
e 45 110
e 46 58
e 46 63
e 46 109
e 46 196
e 47 53
e 47 59
e 47 60
e 47 65
e 47 66
e 47 67
e 47 68
e 47 175
e 48 81
e 48 116
e 48 129
e 48 165
e 49 99
e 49 131
e 49 145
e 49 146
e 49 153
e 49 166
e 49 170
e 49 198
e 49 205
e 50 73
e 50 178
e 50 192
e 50 197
e 51 54
e 51 84
e 51 105
e 51 113
e 51 203
e 51 254
e 52 73
e 52 80
e 52 93
e 52 103
e 52 107
e 52 158
e 53 59
e 53 60
e 53 65
e 53 66
e 53 67
e 53 68
e 54 80
e 54 88
e 54 115
e 54 128
e 55 69
e 55 70
e 55 71
e 55 84
e 55 99
e 55 156
e 55 157
e 56 72
e 56 85
e 56 151
e 56 167
e 56 180
e 57 86
e 57 105
e 57 120
e 57 134
e 58 63
e 58 102
e 58 109
e 59 60
e 59 65
e 59 66
e 59 67
e 59 68
e 60 65
e 60 66
e 60 67
e 60 68
e 61 62
e 61 64
e 61 75
e 61 76
e 61 78
e 61 79
e 61 82
e 61 101
e 61 152
e 62 64
e 62 75
e 62 76
e 62 78
e 62 79
e 62 82
e 62 101
e 62 152
e 63 109
e 64 75
e 64 76
e 64 78
e 64 79
e 64 82
e 64 101
e 64 152
e 65 66
e 65 67
e 65 68
e 66 67
e 66 68
e 67 68
e 69 70
e 69 84
e 69 97
e 70 71
e 70 169
e 70 226
e 71 114
e 71 116
e 71 145
e 72 151
e 72 167
e 72 180
e 73 93
e 73 103
e 73 107
e 74 132
e 74 135
e 74 136
e 74 137
e 74 140
e 74 148
e 75 76
e 75 78
e 75 79
e 75 82
e 76 78
e 76 79
e 76 82
e 77 94
e 77 100
e 77 104
e 77 117
e 77 121
e 78 79
e 78 82
e 79 82
e 80 110
e 81 116
e 81 129
e 81 165
e 83 120
e 83 134
e 83 139
e 83 147
e 83 154
e 83 187
e 83 195
e 83 267
e 84 86
e 84 183
e 85 149
e 85 164
e 85 237
e 86 105
e 87 89
e 87 91
e 87 95
e 87 96
e 87 98
e 88 115
e 88 128
e 88 150
e 88 193
e 89 91
e 89 95
e 89 96
e 89 98
e 90 92
e 90 106
e 90 108
e 90 111
e 90 112
e 91 95
e 91 96
e 91 98
e 92 106
e 92 108
e 92 111
e 92 112
e 93 103
e 93 107
e 94 100
e 94 104
e 94 117
e 94 121
e 95 96
e 95 98
e 96 98
e 99 101
e 99 182
e 99 218
e 100 104
e 100 117
e 100 121
e 101 152
e 103 107
e 104 117
e 104 121
e 106 108
e 106 111
e 106 112
e 108 111
e 108 112
e 109 196
e 110 133
e 111 112
e 113 125
e 113 138
e 113 159
e 113 203
e 114 138
e 114 175
e 115 128
e 116 129
e 116 165
e 117 121
e 118 119
e 118 122
e 118 123
e 118 124
e 118 126
e 118 127
e 119 122
e 119 123
e 119 124
e 119 126
e 119 127
e 120 139
e 120 147
e 120 154
e 122 123
e 122 124
e 122 126
e 122 127
e 123 124
e 123 126
e 123 127
e 124 126
e 124 127
e 125 138
e 125 159
e 125 169
e 125 252
e 126 127
e 129 165
e 130 158
e 130 160
e 131 161
e 131 170
e 132 135
e 132 137
e 132 140
e 134 143
e 134 206
e 134 212
e 134 231
e 135 137
e 135 140
e 136 148
e 137 140
e 138 159
e 139 147
e 139 154
e 139 195
e 141 179
e 141 228
e 142 144
e 143 168
e 143 171
e 143 173
e 144 208
e 144 251
e 145 146
e 145 166
e 146 153
e 146 166
e 147 154
e 150 185
e 150 193
e 151 167
e 151 180
e 152 157
e 153 220
e 153 266
e 154 187
e 155 174
e 155 200
e 155 202
e 156 163
e 156 189
e 156 201
e 157 161
e 157 187
e 160 172
e 160 176
e 162 177
e 163 189
e 163 201
e 164 174
e 164 237
e 166 206
e 167 180
e 168 171
e 168 173
e 169 226
e 169 252
e 171 173
e 172 176
e 172 188
e 172 190
e 174 200
e 174 202
e 176 188
e 176 190
e 178 192
e 178 197
e 179 228
e 183 204
e 184 199
e 186 194
e 188 190
e 189 201
e 191 225
e 191 246
e 192 197
e 198 205
e 200 202
e 207 209
e 208 251
e 210 253
e 211 241
e 211 249
e 212 231
e 213 247
e 214 216
e 215 238
e 217 263
e 219 242
e 221 259
e 222 258
e 223 260
e 224 264
e 225 246
e 227 232
e 229 233
e 230 236
e 233 254
e 234 239
e 235 245
e 240 262
e 241 249
e 243 256
e 244 265
e 248 255
e 250 261
e 257 263
e 268 273
e 269 272
e 270 277
e 271 275
e 274 276
